Version identifier: 22.1.0.0 | 2022-03-09 | 1a383f8ce
CPXPARAM_Threads                                 1
CPXPARAM_MIP_Strategy_VariableSelect             3
CPXPARAM_TimeLimit                               599.99996745399994
1 of 1 MIP starts provided solutions.
MIP start 'm1' defined initial solution with objective 5.0000.
Tried aggregator 1 time.
MIP Presolve eliminated 13 rows and 0 columns.
MIP Presolve modified 273 coefficients.
Reduced MIP has 1213 rows, 5200 columns, and 76896 nonzeros.
Reduced MIP has 5200 binaries, 0 generals, 0 SOSs, and 0 indicators.
Presolve time = 0.12 sec. (141.96 ticks)
Probing time = 0.02 sec. (15.17 ticks)
Tried aggregator 1 time.
Detecting symmetries...
MIP Presolve modified 14 coefficients.
Reduced MIP has 1213 rows, 5200 columns, and 77272 nonzeros.
Reduced MIP has 5200 binaries, 0 generals, 0 SOSs, and 0 indicators.
Presolve time = 0.08 sec. (86.53 ticks)
Probing time = 0.02 sec. (15.22 ticks)
Clique table members: 800.
MIP emphasis: balance optimality and feasibility.
MIP search method: dynamic search.
Parallel mode: none, using 1 thread.
Root relaxation solution time = 0.84 sec. (945.93 ticks)

        Nodes                                         Cuts/
   Node  Left     Objective  IInf  Best Integer    Best Bound    ItCnt     Gap

*     0+    0                            5.0000    20100.0000              --- 
      0     0      200.0000   865        5.0000      200.0000     3765     --- 
*     0+    0                           37.0000      200.0000           440.54%
      0     0      200.0000   237       37.0000       Cuts: 3     6796  440.54%
      0     0      200.0000   149       37.0000    Cliques: 1     8800  440.54%
*     0+    0                          194.0000      200.0000             3.09%
      0     0        cutoff            194.0000      200.0000     8800    3.09%
Detecting symmetries...
      0     2      200.0000   106      194.0000      200.0000     8800    3.09%
Elapsed time = 15.21 sec. (17205.65 ticks, tree = 0.01 MB, solutions = 3)
      1     3      200.0000   195      194.0000      200.0000    13204    3.09%
      2     4      200.0000   365      194.0000      200.0000    16051    3.09%
      3     5      200.0000   354      194.0000      200.0000    19389    3.09%
      4     6      200.0000   188      194.0000      200.0000    19660    3.09%
      6     8      200.0000   196      194.0000      200.0000    22953    3.09%
      7     9      200.0000   176      194.0000      200.0000    24694    3.09%
      8     9      200.0000   305      194.0000      200.0000    25884    3.09%
      9    10      200.0000   200      194.0000      200.0000    26431    3.09%
     10    10      200.0000   192      194.0000      200.0000    29481    3.09%
     13    13      200.0000   207      194.0000      200.0000    32002    3.09%
Elapsed time = 22.42 sec. (25016.64 ticks, tree = 0.10 MB, solutions = 3)
     16    16      200.0000   197      194.0000      200.0000    35961    3.09%
     19    19      200.0000   187      194.0000      200.0000    39089    3.09%
     22    22      200.0000   218      194.0000      200.0000    45118    3.09%
     24    24      200.0000   175      194.0000      200.0000    51408    3.09%
     26    26      200.0000   230      194.0000      200.0000    59783    3.09%
     28    28      200.0000   324      194.0000      200.0000    64331    3.09%
     31    31      200.0000   166      194.0000      200.0000    71309    3.09%
     33    33      200.0000   244      194.0000      200.0000    75445    3.09%
     36    36      200.0000   166      194.0000      200.0000    78210    3.09%
     39    39      200.0000   283      194.0000      200.0000    84184    3.09%
Elapsed time = 37.06 sec. (40729.48 ticks, tree = 0.33 MB, solutions = 3)
     41    41      200.0000   243      194.0000      200.0000    88471    3.09%
     45    45      200.0000   229      194.0000      200.0000    93130    3.09%
     47    47      200.0000   188      194.0000      200.0000    98536    3.09%
     49    49      200.0000   201      194.0000      200.0000   101807    3.09%
     50    50      200.0000   178      194.0000      200.0000   104159    3.09%
     51    51      200.0000   258      194.0000      200.0000   108209    3.09%
     53    53      200.0000   183      194.0000      200.0000   110452    3.09%
     56    56      200.0000   350      194.0000      200.0000   115274    3.09%
     59    59      200.0000   179      194.0000      200.0000   117684    3.09%
     60    60      200.0000   325      194.0000      200.0000   122029    3.09%
Elapsed time = 51.05 sec. (55428.29 ticks, tree = 0.50 MB, solutions = 3)
     62    62      200.0000   275      194.0000      200.0000   125504    3.09%
     66    66      200.0000   327      194.0000      200.0000   133084    3.09%
     68    68      200.0000   315      194.0000      200.0000   138472    3.09%
     72    72      200.0000   155      194.0000      200.0000   140481    3.09%
     75    75      200.0000   353      194.0000      200.0000   146154    3.09%
     78    78      200.0000   182      194.0000      200.0000   150388    3.09%
     81    81      200.0000   182      194.0000      200.0000   152517    3.09%
     83    82      199.8868   399      194.0000      200.0000   159064    3.09%
     87    86      200.0000   396      194.0000      200.0000   162664    3.09%
     89    87      200.0000   337      194.0000      200.0000   169994    3.09%
Elapsed time = 63.79 sec. (68540.88 ticks, tree = 0.74 MB, solutions = 3)
     91    89      200.0000   302      194.0000      200.0000   175435    3.09%
     93    91      200.0000   257      194.0000      200.0000   180360    3.09%
     95    91      199.7273   375      194.0000      200.0000   188047    3.09%
     99    93      199.9444   276      194.0000      200.0000   193860    3.09%
    102    95      200.0000   245      194.0000      200.0000   197867    3.09%
    105    97      200.0000   245      194.0000      200.0000   201749    3.09%
    110   100      199.0000   273      194.0000      200.0000   206908    3.09%
    115   104      199.0833   339      194.0000      200.0000   211897    3.09%
    118   106      200.0000   264      194.0000      200.0000   216154    3.09%
    122   109      200.0000   244      194.0000      200.0000   220592    3.09%
Elapsed time = 75.19 sec. (80004.01 ticks, tree = 0.97 MB, solutions = 3)
    125   110      200.0000   274      194.0000      200.0000   226970    3.09%
    128   112      200.0000   263      194.0000      200.0000   230990    3.09%
    132   115      199.6042   477      194.0000      200.0000   235985    3.09%
    136   117      199.0667   290      194.0000      200.0000   241300    3.09%
    140   119      199.0000   223      194.0000      200.0000   247489    3.09%
    144   121      198.9673   332      194.0000      200.0000   252999    3.09%
    149   125      200.0000   181      194.0000      200.0000   255994    3.09%
    153   128      200.0000   157      194.0000      200.0000   259859    3.09%
    157   130      199.5000   275      194.0000      200.0000   265715    3.09%
    161   133      200.0000   137      194.0000      200.0000   271282    3.09%
Elapsed time = 87.59 sec. (92329.80 ticks, tree = 1.26 MB, solutions = 3)
    165   135      200.0000   110      194.0000      200.0000   276771    3.09%
    170   137      199.0000   214      194.0000      200.0000   282791    3.09%
    176   143      199.0000   186      194.0000      200.0000   285279    3.09%
    181   148      199.0000   165      194.0000      200.0000   288439    3.09%
    186   153      199.0000   153      194.0000      200.0000   291059    3.09%
    191   156      198.0000   174      194.0000      200.0000   296305    3.09%
    196   159      198.1875   250      194.0000      200.0000   300998    3.09%
    200   162      199.0000   178      194.0000      200.0000   305403    3.09%
    205   165      199.0000   143      194.0000      200.0000   310396    3.09%
    210   167      199.0000   240      194.0000      200.0000   316025    3.09%
Elapsed time = 98.66 sec. (103162.41 ticks, tree = 1.65 MB, solutions = 3)
    215   170      198.0945   264      194.0000      200.0000   321409    3.09%
    222   174      197.9500   135      194.0000      200.0000   326410    3.09%
    232   184      197.0000   100      194.0000      200.0000   329014    3.09%
*   240+  190                          195.0000      200.0000             2.56%
    244   193      197.0000   106      195.0000      200.0000   332159    2.56%
*   248   192      integral     0      196.0000      200.0000   333618    2.04%
    250   194      200.0000   218      196.0000      200.0000   335436    2.04%
    253   196      200.0000   235      196.0000      200.0000   339734    2.04%
    257   198      199.6923   294      196.0000      200.0000   345589    2.04%
    261   201      200.0000   168      196.0000      200.0000   348846    2.04%
    265   203      199.2000   277      196.0000      200.0000   353945    2.04%
    269   206      200.0000   179      196.0000      200.0000   357947    2.04%
Elapsed time = 109.53 sec. (113574.84 ticks, tree = 2.06 MB, solutions = 5)
    274   209      200.0000   188      196.0000      200.0000   363105    2.04%
    279   212      200.0000   158      196.0000      200.0000   367374    2.04%
    284   216      200.0000   153      196.0000      200.0000   370498    2.04%
    289   219      199.2703   234      196.0000      200.0000   377724    2.04%
    294   222      199.0000   189      196.0000      200.0000   382171    2.04%
    301   229      199.0000   198      196.0000      200.0000   384970    2.04%
    307   232        cutoff            196.0000      200.0000   388939    2.04%
    311   234        cutoff            196.0000      200.0000   391408    2.04%
    316   239      199.0000   103      196.0000      200.0000   394603    2.04%
    322   240      198.0000   191      196.0000      200.0000   400382    2.04%
Elapsed time = 120.73 sec. (124310.42 ticks, tree = 2.41 MB, solutions = 5)
    327   239    infeasible            196.0000      200.0000   407863    2.04%
    333   239    infeasible            196.0000      200.0000   413499    2.04%
    340   240      198.0000   177      196.0000      200.0000   419146    2.04%
    343   239      200.0000   142      196.0000      200.0000   423865    2.04%
    347   240      197.0000   168      196.0000      200.0000   431502    2.04%
    354   246      197.0000   168      196.0000      200.0000   433265    2.04%
    359   247      199.8380   302      196.0000      200.0000   439753    2.04%
    365   251      197.0000   172      196.0000      200.0000   443614    2.04%
    372   254    infeasible            196.0000      200.0000   449444    2.04%
    392   259      200.0000   223      196.0000      200.0000   467252    2.04%
Elapsed time = 134.99 sec. (137759.18 ticks, tree = 2.64 MB, solutions = 5)
    410   268      198.0000   214      196.0000      200.0000   482122    2.04%
    439   277      198.0000    86      196.0000      200.0000   499804    2.04%
    460   288      199.0000   163      196.0000      200.0000   514692    2.04%
    483   303      199.0000   181      196.0000      200.0000   530374    2.04%
    507   317      198.2778   130      196.0000      200.0000   548006    2.04%
    532   333      199.0000   146      196.0000      200.0000   566234    2.04%
    557   346      198.0000   130      196.0000      200.0000   586709    2.04%
    584   355    infeasible            196.0000      200.0000   607727    2.04%
    610   366    infeasible            196.0000      200.0000   623199    2.04%
    639   375      198.2941   209      196.0000      200.0000   645425    2.04%
Elapsed time = 176.67 sec. (176807.67 ticks, tree = 3.95 MB, solutions = 5)
    659   386      198.0000    90      196.0000      200.0000   661987    2.04%
    689   402    infeasible            196.0000      200.0000   681230    2.04%
    702   405      200.0000   283      196.0000      200.0000   703136    2.04%
    715   415      198.0000   265      196.0000      200.0000   716722    2.04%
    726   422      197.0000   245      196.0000      200.0000   735385    2.04%
    744   432      200.0000   391      196.0000      200.0000   756097    2.04%
    749   437      200.0000   346      196.0000      200.0000   768362    2.04%
    756   444      200.0000   294      196.0000      200.0000   782042    2.04%
    761   449      200.0000   234      196.0000      200.0000   788535    2.04%
    768   455      200.0000   190      196.0000      200.0000   803809    2.04%
Elapsed time = 217.94 sec. (217780.15 ticks, tree = 4.27 MB, solutions = 5)
    774   458      199.1032   342      196.0000      200.0000   818968    2.04%
    780   464      200.0000   188      196.0000      200.0000   834647    2.04%
    790   471      198.8778   289      196.0000      200.0000   852443    2.04%
    810   490      198.0000   163      196.0000      200.0000   862492    2.04%
    825   505      198.0000   100      196.0000      200.0000   875263    2.04%
    844   521      197.0000   178      196.0000      200.0000   891978    2.04%
    865   539      198.0000   103      196.0000      200.0000   907506    2.04%
    880   545      200.0000   157      196.0000      200.0000   919188    2.04%
    887   551      199.2279   439      196.0000      200.0000   932108    2.04%
    900   563      198.0000   189      196.0000      200.0000   943668    2.04%
Elapsed time = 259.15 sec. (258871.45 ticks, tree = 5.58 MB, solutions = 5)
    919   569      200.0000   186      196.0000      200.0000   960909    2.04%
    928   578      200.0000   242      196.0000      200.0000   970978    2.04%
    941   588      198.0000   172      196.0000      200.0000   982459    2.04%
    960   604      197.0000   158      196.0000      200.0000   995670    2.04%
    968   608      200.0000   502      196.0000      200.0000  1010705    2.04%
    981   619      199.0000   183      196.0000      200.0000  1020821    2.04%
    986   623      200.0000   219      196.0000      200.0000  1029404    2.04%
    987   624      200.0000   183      196.0000      200.0000  1031170    2.04%

Performing restart 1

Repeating presolve.
Tried aggregator 1 time.
MIP Presolve eliminated 0 rows and 196 columns.
MIP Presolve modified 14870 coefficients.
Reduced MIP has 1213 rows, 5004 columns, and 54132 nonzeros.
Reduced MIP has 5004 binaries, 0 generals, 0 SOSs, and 0 indicators.
Presolve time = 0.05 sec. (42.59 ticks)
Tried aggregator 1 time.
Reduced MIP has 1213 rows, 5004 columns, and 54132 nonzeros.
Reduced MIP has 5004 binaries, 0 generals, 0 SOSs, and 0 indicators.
Presolve time = 0.04 sec. (31.05 ticks)
Represolve time = 0.34 sec. (213.70 ticks)
    989     0      200.0000   446      196.0000       Cuts: 4  1036757    2.04%
    989     0      200.0000   105      196.0000   ZeroHalf: 1  1037821    2.04%
    989     0      200.0000   734      196.0000     Cuts: 119  1041113    2.04%
    989     0      200.0000   279      196.0000       Cuts: 8  1043522    2.04%
    989     0      200.0000   283      196.0000       Cuts: 3  1045090    2.04%
    989     0      200.0000   146      196.0000       Cuts: 9  1046273    2.04%
    989     0      200.0000   187      196.0000       Cuts: 6  1048807    2.04%
    989     0      200.0000   153      196.0000    Cliques: 1  1049354    2.04%
    989     0      200.0000   751      196.0000      Cuts: 97  1052363    2.04%
    989     2      200.0000   130      196.0000      200.0000  1052363    2.04%
    993     6      200.0000   149      196.0000      200.0000  1065657    2.04%
Elapsed time = 346.19 sec. (346592.02 ticks, tree = 0.02 MB, solutions = 5)
    998    11      200.0000   613      196.0000      200.0000  1081144    2.04%
   1006    19      200.0000   371      196.0000      200.0000  1096319    2.04%
   1015    28      200.0000   502      196.0000      200.0000  1107798    2.04%
   1023    36      200.0000   414      196.0000      200.0000  1123999    2.04%
   1037    50      200.0000   371      196.0000      200.0000  1142405    2.04%
   1052    65      200.0000   312      196.0000      200.0000  1168084    2.04%
   1077    79      197.0000   215      196.0000      200.0000  1189035    2.04%
   1089    86      197.0000   199      196.0000      200.0000  1195771    2.04%
   1103    90      200.0000   231      196.0000      200.0000  1211399    2.04%
   1109    96      200.0000   250      196.0000      200.0000  1230548    2.04%
Elapsed time = 391.72 sec. (391980.25 ticks, tree = 0.92 MB, solutions = 5)
   1119   106      200.0000   258      196.0000      200.0000  1240483    2.04%
   1126   112      200.0000   258      196.0000      200.0000  1253513    2.04%
   1133   119      200.0000   189      196.0000      200.0000  1273137    2.04%
   1147   133      200.0000   201      196.0000      200.0000  1289591    2.04%
   1155   141      200.0000   200      196.0000      200.0000  1305223    2.04%
   1168   154      200.0000   110      196.0000      200.0000  1318229    2.04%
   1179   165      199.7083   274      196.0000      200.0000  1335966    2.04%
   1201   181      199.0000   165      196.0000      200.0000  1365413    2.04%
   1209   185      200.0000   329      196.0000      200.0000  1386377    2.04%
   1226   198    infeasible            196.0000      200.0000  1400231    2.04%
Elapsed time = 431.49 sec. (432109.82 ticks, tree = 2.00 MB, solutions = 5)
   1245   203      198.0000   126      196.0000      200.0000  1420557    2.04%
   1259   209      200.0000   273      196.0000      200.0000  1438640    2.04%
   1275   221      197.0000   149      196.0000      200.0000  1454507    2.04%
   1298   224    infeasible            196.0000      200.0000  1480503    2.04%
   1324   226      197.0000   163      196.0000      200.0000  1505228    2.04%
   1348   230      200.0000   206      196.0000      200.0000  1526049    2.04%
   1361   242      199.0000   224      196.0000      200.0000  1539910    2.04%
   1378   255    infeasible            196.0000      200.0000  1554166    2.04%
   1389   262      200.0000   163      196.0000      200.0000  1564599    2.04%
   1401   274      200.0000   273      196.0000      200.0000  1580770    2.04%
Elapsed time = 473.79 sec. (472475.67 ticks, tree = 2.87 MB, solutions = 5)
   1413   286      200.0000   226      196.0000      200.0000  1596166    2.04%
   1424   296      200.0000   140      196.0000      200.0000  1612571    2.04%
   1433   304      199.0000   232      196.0000      200.0000  1629956    2.04%
   1443   311      200.0000   137      196.0000      200.0000  1649917    2.04%
   1451   316      199.1439   306      196.0000      200.0000  1669775    2.04%
   1465   325      198.2222   311      196.0000      200.0000  1687550    2.04%
   1480   336      198.0471   225      196.0000      200.0000  1704909    2.04%
   1489   342      199.0000   238      196.0000      200.0000  1714563    2.04%
   1509   354      199.0000   260      196.0000      200.0000  1733107    2.04%
   1528   364      198.0000   190      196.0000      200.0000  1753439    2.04%
Elapsed time = 526.97 sec. (523676.10 ticks, tree = 3.93 MB, solutions = 5)
   1552   381      197.0000   102      196.0000      200.0000  1770903    2.04%
   1579   385      199.0000   271      196.0000      200.0000  1791946    2.04%
   1592   390      200.0000   184      196.0000      200.0000  1808502    2.04%
   1608   404      198.0000   145      196.0000      200.0000  1823149    2.04%
   1641   421      197.0000   153      196.0000      200.0000  1839102    2.04%
   1669   427      198.9231   222      196.0000      200.0000  1858474    2.04%
Starting limited solution polishing.
   1695   447      200.0000   182      196.0000      200.0000  1872364    2.04%
   1707   457      200.0000   174      196.0000      200.0000  1888091    2.04%
   1720   468      199.9709   285      196.0000      200.0000  1903495    2.04%
   1739   483      199.0000   133      196.0000      200.0000  1918576    2.04%
Elapsed time = 568.86 sec. (562831.55 ticks, tree = 5.31 MB, solutions = 5)
   1767   500      197.0000   107      196.0000      200.0000  1935205    2.04%
   1785   509      199.1136   252      196.0000      200.0000  1950904    2.04%
   1804   521      197.0000   219      196.0000      200.0000  1967103    2.04%
   1824   526      200.0000   151      196.0000      200.0000  1986227    2.04%
   1836   538      199.9583   210      196.0000      200.0000  1995301    2.04%
   1858   554      197.0000   109      196.0000      200.0000  2007843    2.04%
   1888   560      197.0000    88      196.0000      200.0000  2032488    2.04%

Clique cuts applied:  7
Zero-half cuts applied:  9
Gomory fractional cuts applied:  1

Root node processing (before b&c):
  Real time             =   15.12 sec. (17127.11 ticks)
Sequential b&c:
  Real time             =  584.88 sec. (574940.34 ticks)
                          ------------
Total (root+branch&cut) =  600.00 sec. (592067.45 ticks)
Primal:	196
Dual:	200
Status:	Feasible
Time:	600.02
Sequence:
	19
	12
	14
	7
	10
	15
	7
	16
	7
	3
	20
	7
	3
	18
	7
	3
	18
	8
	3
	18
	7
	5
	8
	18
	5
	18
	7
	6
	7
	18
	3
	18
	7
	4
	7
	18
	5
	18
	8
	3
	7
	18
	5
	20
	7
	14
	7
	18
	3
	19
	7
	14
	7
	18
	5
	9
	18
	3
	18
	7
	15
	12
	7
	16
	10
	18
	0
	23
	7
	16
	10
	8
	14
	12
	18
	1
	22
	7
	14
	10
	18
	2
	23
	7
	14
	10
	9
	14
	10
	18
	1
	21
	7
	14
	12
	18
	2
	21
	7
	14
	12
	19
	1
	21
	7
	16
	10
	19
	1
	21
	7
	14
	10
	18
	0
	21
	7
	14
	12
	7
	14
	13
	7
	16
	10
	18
	2
	21
	7
	14
	12
	19
	1
	21
	7
	14
	9
	16
	10
	14
	7
	16
	9
	10
	14
	7
	23
	2
	18
	10
	14
	7
	12
	15
	7
	21
	1
	18
	11
	16
	7
	12
	14
	8
	21
	1
	18
	12
	15
	7
	10
	16
	7
	17
	7
	18
	5
	18
	9
	14
	10
	7
	14
	10
	20
	1
	21
	7
	14
	10
	20
	1
	21
	7
	14
	13
